<?xml version = "1.0" encoding="UTF-8" standalone="yes"?>
<CPLEXSolution version="1.2">
 <header
   problemName="cluster_small_cut_n1"
   objectiveValue="76.075630252100837"
   solutionTypeValue="1"
   solutionTypeString="basic"
   solutionStatusValue="1"
   solutionStatusString="optimal"
   solutionMethodString="dual"
   primalFeasible="1"
   dualFeasible="1"
   simplexIterations="1"
   writeLevel="1"/>
 <quality
   epRHS="9.9999999999999995e-07"
   epOpt="9.9999999999999995e-07"
   maxPrimalInfeas="0"
   maxDualInfeas="0"
   maxPrimalResidual="7.815970093361102e-14"
   maxDualResidual="0"
   maxX="0.80504201680672294"
   maxPi="1.9747899159663866"
   maxSlack="928.12689075630249"
   maxRedCost="147.41176470588235"
   kappa="43.616185778724962"/>
 <linearConstraints>
  <constraint name="c0" index="0" status="BS" slack="0.80504201680672516" dual="-0"/>
  <constraint name="c1" index="1" status="BS" slack="426.26470588235293" dual="-0"/>
  <constraint name="c2" index="2" status="BS" slack="818.0184873949579" dual="-0"/>
  <constraint name="c3" index="3" status="BS" slack="321.98067226890754" dual="-0"/>
  <constraint name="c4" index="4" status="BS" slack="928.12689075630249" dual="-0"/>
  <constraint name="c5" index="5" status="LL" slack="0" dual="0.1764705882352941"/>
  <constraint name="c6" index="6" status="BS" slack="72.010924369747883" dual="-0"/>
  <constraint name="c7" index="7" status="BS" slack="385.5310924369748" dual="-0"/>
  <constraint name="c8" index="8" status="BS" slack="117.8126050420168" dual="-0"/>
  <constraint name="c9" index="9" status="BS" slack="587.57058823529417" dual="-0"/>
  <constraint name="c10" index="10" status="BS" slack="680.33697478991598" dual="-0"/>
  <constraint name="c11" index="11" status="BS" slack="553.50756302521006" dual="-0"/>
  <constraint name="c12" index="12" status="BS" slack="704.03193277310925" dual="-0"/>
  <constraint name="c13" index="13" status="BS" slack="323.40924369747904" dual="-0"/>
  <constraint name="c14" index="14" status="BS" slack="676.26722689075632" dual="-0"/>
  <constraint name="cut_1" index="15" status="LL" slack="0" dual="1.9747899159663866"/>
 </linearConstraints>
 <variables>
  <variable name="x0" index="0" status="LL" value="0" reducedCost="-85.35294117647058"/>
  <variable name="x1" index="1" status="LL" value="0" reducedCost="-45.983193277310924"/>
  <variable name="x2" index="2" status="LL" value="0" reducedCost="-127.81512605042019"/>
  <variable name="x3" index="3" status="BS" value="0.74033613445378132" reducedCost="0"/>
  <variable name="x4" index="4" status="LL" value="0" reducedCost="-118.36974789915966"/>
  <variable name="x5" index="5" status="LL" value="0" reducedCost="-15.462184873949596"/>
  <variable name="x6" index="6" status="LL" value="0" reducedCost="-113.39495798319325"/>
  <variable name="x7" index="7" status="LL" value="0" reducedCost="-147.41176470588235"/>
  <variable name="x8" index="8" status="BS" value="0.80504201680672294" reducedCost="0"/>
  <variable name="x9" index="9" status="LL" value="0" reducedCost="-21.478991596638657"/>
  <variable name="x10" index="10" status="LL" value="0" reducedCost="-111.94957983193277"/>
  <variable name="x11" index="11" status="LL" value="0" reducedCost="-111.64705882352941"/>
  <variable name="s0" index="12" status="LL" value="0" reducedCost="0"/>
  <variable name="s1" index="13" status="LL" value="0" reducedCost="0"/>
  <variable name="s2" index="14" status="LL" value="0" reducedCost="0"/>
  <variable name="s3" index="15" status="LL" value="0" reducedCost="0"/>
  <variable name="s4" index="16" status="LL" value="0" reducedCost="0"/>
  <variable name="s5" index="17" status="LL" value="0" reducedCost="-0.1764705882352941"/>
  <variable name="s6" index="18" status="LL" value="0" reducedCost="0"/>
  <variable name="s7" index="19" status="LL" value="0" reducedCost="0"/>
  <variable name="s8" index="20" status="LL" value="0" reducedCost="0"/>
  <variable name="s9" index="21" status="LL" value="0" reducedCost="0"/>
  <variable name="s10" index="22" status="LL" value="0" reducedCost="0"/>
  <variable name="s11" index="23" status="LL" value="0" reducedCost="0"/>
  <variable name="s12" index="24" status="LL" value="0" reducedCost="0"/>
  <variable name="s13" index="25" status="LL" value="0" reducedCost="0"/>
  <variable name="s14" index="26" status="LL" value="0" reducedCost="0"/>
 </variables>
 <objectiveValues>
  <objective index="0" name="" value="76.075630252100837"/>
 </objectiveValues>
</CPLEXSolution>
